&control
    disk_io = 'none',
    prefix = 'K_DiffDFT',
    calculation ='scf',
    outdir = './out',
    pseudo_dir = '/global/home/hpc5146'
    tstress = .true.
    tprnfor = .true.
 /
 &system
    ibrav=0,
    nat=$nnn,
    ntyp=1,
    vdw_corr='XDM'
    ecutwfc=60,
    occupations='smearing',
    smearing = 'gaussian',
    degauss = 0.01,

 /
 &electrons
    mixing_mode='plain',
    diagonalization='david',
/
 &ions
    ion_dynamics = 'bfgs'
 /
 &cell
 /
CELL_PARAMETERS angstrom
   $v1
   $v2
   $v3

ATOMIC_SPECIES
K  39.0983 K.pbe-mt_fhi.UPF
ATOMIC_POSITIONS crystal
   $aaa
K_POINTS automatic
8 8 8 0 0 0