ATOMIC_SPECIES
K  39.0983 K.pbe-mt_fhi.UPF
ATOMIC_POSITIONS angstrom
K  0   0   0
