&control
    disk_io = 'none',
    prefix = '2strainK',
    calculation ='scf',
    outdir = '$out',
    pseudo_dir = '$pseudo_dir'
    tstress = .true.
    tprnfor = .true.
 /
 &system
    ibrav=0,
    nat=2,
    ntyp=1,
    ecutwfc=60,
    occupations='smearing',
    smearing = 'gaussian',
    degauss = 0.01,
 /
 &electrons
    mixing_mode='plain',
    diagonalization='david',
/
 &ions
    ion_dynamics = 'bfgs'
 /
CELL_PARAMETERS bohr
   $aaa1 0 0
   0 $aaa5 0
   0 0 $aaa9
ATOMIC_SPECIES
K  39.0983 $pseudo
ATOMIC_POSITIONS crystal
K  0   0   0
K 0.5 0.5 0.5
K_POINTS automatic
6 6 6 0 0 0