units           metal
atom_style	atomic
boundary        p p p
box tilt large
read_data        $ddd

mass            * 39.0983

pair_style mlip /global/home/hpc5146/Projects/K-MTP-training/active_learning/mdLearning/mlip.ini
pair_coeff * *

neighbor	0.5 bin
neigh_modify    every 1 delay 5 check yes

timestep	0.001

fix		1 all nve
fix		2 all langevin $ttt $ttt 0.1 826234 zero yes

thermo_style    custom step temp 
thermo 1000


run             100000
reset_timestep  0